[Molden Format]
[Atoms] Angs
 C     1  6     5.639420     0.500636    -0.001622
 C     2  6     4.863290     1.653200    -0.001273
 C     3  6     3.472290     1.564980    -0.000575
 C     4  6     2.824780     0.316823    -0.000225
 C     5  6     3.627770    -0.839234    -0.000689
 C     6  6     5.021040    -0.743898    -0.001458
 C     7  6     3.045830    -2.104020    -0.000803
 C     8  6     1.664440    -2.236600    -0.000435
 C     9  6     0.849540    -1.105950     0.000265
 C    10  6    -0.536145    -1.281750     0.000390
 C    11  6    -1.411880    -0.187089     0.000901
 C    12  6    -0.844460     1.096870     0.001554
 C    13  6    -1.658860     2.227810     0.001850
 C    14  6    -3.040130     2.095960     0.001298
 C    15  6    -3.622560     0.831378     0.000489
 C    16  6    -5.015830     0.737208    -0.000296
 C    17  6    -5.634990    -0.506893    -0.000847
 C    18  6    -4.859520    -1.659930    -0.000522
 C    19  6    -3.468380    -1.572770     0.000121
 C    20  6    -2.820030    -0.324964     0.000517
 C    21  6     0.541030     1.272660     0.001522
 C    22  6     1.416770     0.178151     0.000561
 H    23  1     6.724500     0.571659    -0.002082
 H    24  1     5.344460     2.628290    -0.001788
 H    25  1     2.922590     2.498130    -0.000614
 H    26  1     5.633350    -1.643040    -0.001721
 H    27  1     3.668200    -2.996060    -0.001333
 H    28  1     1.226110    -3.231930    -0.000677
 H    29  1    -0.909207    -2.298800    -0.000175
 H    30  1    -1.220140     3.222960     0.002333
 H    31  1    -3.662170     2.988150     0.001304
 H    32  1    -5.627410     1.636800    -0.000470
 H    33  1    -6.720140    -0.577166    -0.001485
 H    34  1    -5.341450    -2.634610    -0.000783
 H    35  1    -2.919150    -2.506230     0.000399
 H    36  1     0.913811     2.289730     0.001969
