[Molden Format]
[Atoms] Angs
 C     1  6    -0.035208    -1.810700    -0.019684
 C     2  6    -1.220490    -1.091820    -0.171434
 C     3  6    -1.205000     0.311453    -0.175415
 C     4  6     0.019630     0.991016    -0.019380
 C     5  6     1.215600     0.263943     0.144750
 C     6  6     1.177430    -1.138610     0.139729
Cl     7 17     2.594590    -2.112140     0.329762
Cl     8 17     2.732860     1.086160     0.357416
Cl     9 17     0.054915     2.733010    -0.029882
Cl    10 17    -2.691280     1.191690    -0.372140
Cl    11 17    -2.677480    -2.009890    -0.343536
 H    12  1    -0.055560    -2.899610    -0.022287
