[Molden Format]
[Atoms] Angs
 C     1  6     3.666620     0.702707     0.025218
 C     2  6     3.665290    -0.705777     0.043064
 C     3  6     2.467480    -1.427430     0.020616
 C     4  6     1.285130    -0.712469    -0.010398
 C     5  6     1.286250     0.711524    -0.017673
 C     6  6     2.469770     1.425370    -0.007600
 C     7  6    -0.106251     1.140330    -0.012032
 C     8  6    -0.712373     2.383010     0.007932
 C     9  6    -2.117350     2.443650     0.033864
 C    10  6    -2.904960     1.270670     0.038839
 C    11  6    -2.291700     0.003180     0.019870
 C    12  6    -0.899566     0.000870    -0.006065
 C    13  6    -0.107821    -1.138420    -0.011266
 C    14  6    -0.716607    -2.380800    -0.006298
 C    15  6    -2.121870    -2.438180     0.017669
 C    16  6    -2.907330    -1.264660     0.033443
 H    17  1     4.614820     1.235660     0.044344
 H    18  1     4.612800    -1.239620     0.079866
 H    19  1     2.473100    -2.511340     0.039064
 H    20  1     2.476900     2.509500    -0.015330
 H    21  1    -0.123940     3.294720     0.012063
 H    22  1    -2.609110     3.413510     0.055686
 H    23  1    -3.988360     1.353530     0.062841
 H    24  1    -0.130345    -3.293650    -0.014602
 H    25  1    -2.616010    -3.408060     0.029524
 H    26  1    -3.991110    -1.344970     0.060336
