[Molden Format]
[Atoms] Angs
 C     1  6    -0.646622     1.275550     0.147504
 C     2  6    -1.587950     0.257278     0.285147
 C     3  6    -1.116910    -1.038380     0.489768
 N     4  7     0.206063    -1.314770     0.545803
 H     5  1    -0.939622     2.311540    -0.009216
 H     6  1    -1.794410    -1.882320     0.604285
 N     7  7     0.680766     1.025840     0.191774
 C     8  6     1.045230    -0.266120     0.376942
 H     9  1    -2.653540     0.467346     0.235870
 N    10  7     2.380890    -0.563608     0.397464
 S    11 16     3.493820    -0.147522    -0.825367
 O    12  8     3.092580     1.067200    -1.480760
 H    13  1     2.587030    -1.506440     0.704107
 O    14  8     3.594600    -1.345670    -1.611740
 C    15  6     7.071580     1.599320    -0.020640
 C    16  6     5.174300     0.121940    -0.325915
 C    17  6     7.871150     0.511401     0.326100
 H    18  1     7.493330     2.601610    -0.054350
 C    19  6     5.730670     1.404800    -0.343667
 C    20  6     7.317200    -0.765786     0.372003
 H    21  1     5.561640    -1.963880     0.075346
 C    22  6     5.975340    -0.959625     0.052126
 H    23  1     5.125950     2.263260    -0.624898
 N    24  7     9.195130     0.689367     0.602401
 H    25  1     9.792730    -0.130285     0.635640
 H    26  1     9.624450     1.574270     0.355765
