[Molden Format]
[Atoms] Angs
 C     1  6    -0.804913    -2.563990     0.310569
 C     2  6    -2.102530    -3.047190     0.464855
 C     3  6    -3.193260    -2.191060     0.348352
 C     4  6    -2.984370    -0.838541     0.076683
 C     5  6    -1.689160    -0.344931    -0.074442
 C     6  6    -0.576732    -1.201060     0.039612
 C     7  6     0.823195    -0.671318    -0.121793
 C     8  6     1.845070    -1.483850    -0.650495
 C     9  6     3.141100    -0.990740    -0.796358
 C    10  6     3.441940     0.317345    -0.415320
 C    11  6     2.441470     1.130020     0.108916
 C    12  6     1.142620     0.647495     0.254522
Cl    13 17     5.043680     0.956533    -0.580207
Cl    14 17     4.358660    -2.029790    -1.459340
Cl    15 17    -4.317780     0.256174    -0.082591
Cl    16 17    -4.790280    -2.832790     0.546063
 H    17  1     0.022409    -3.259600     0.424627
 H    18  1    -2.261610    -4.101000     0.680904
 H    19  1    -1.559460     0.710285    -0.300480
 H    20  1     1.638620    -2.502120    -0.969233
 H    21  1     2.673600     2.148540     0.410981
 H    22  1     0.391796     1.306200     0.683171
